unsat
(:max-memory         18.24
 :memory             18.04
 :nlsat-conflicts    15
 :nlsat-propagations 120
 :nlsat-stages       35
 :num-allocs         54748
 :rlimit-count       19661
 :time               0.01
 :total-time         0.02)
